decision_x1=[0,99];
decision_x2=[0,99];
decision_x3=[0,99];
decision_x4=[0,99];
decision_x5=[0,99];
decision_x6=[0,99];
decision_x7=[0,99];
decision_x8=[0,99];
decision_x9=[0,99];
decision_x10=[0,99];
random_y1=[0,99];
random_y2=[0,99];
random_y3=[0,99];
random_y4=[0,99];
random_y5=[0,99];
random_y6=[0,99];
random_y7=[0,99];
random_y8=[0,99];
random_y9=[0,99];
random_y10=[0,99];
function(x2,x1)=2.97184x2^2 1.15736x2 -7.88602x1^2 5.51202x1 5.53267x2x1 -3.16344;
function(x4,x2)=-6.64886x4^2 6.31408x4 5.07503x2^2 -5.41928x2 7.50734x4x2 3.37688;
function(x4,x3)=-1.80336x4^2 2.67193x4 -4.69578x3^2 -7.36269x3 1.42002x4x3 -8.11327;
function(x6,x5)=-3.25237x6^2 -2.69751x6 -6.29232x5^2 -2.0053x5 -7.74382x6x5 -4.03207;
function(x7,x4)=7.90934x7^2 -6.59361x7 -3.99778x4^2 -3.76608x4 2.16518x7x4 4.88761;
function(x8,x3)=-4.12241x8^2 -2.5493x8 6.48094x3^2 -2.92322x3 4.62205x8x3 1.57584;
function(x8,x5)=-4.64483x8^2 -7.17153x8 -1.70404x5^2 2.37783x5 3.76405x8x5 -8.62986;
function(x9,x4)=2.36501x9^2 -7.30894x9 -1.08842x4^2 -3.3978x4 -9.50648x9x4 -3.83256;
function(x10,x1)=7.72906x10^2 -1.90217x10 8.1206x1^2 3.29084x1 -3.36462x10x1 -2.24607;
function(x1,y1)=6.27905x1^2 9.90142x1 -1.50675y1^2 -6.39479y1 -6.38902x1y1 2.14965;
function(x2,y2)=2.58768x2^2 5.47533x2 -1.43923y2^2 3.14848y2 -3.38937x2y2 7.78183;
function(x3,y3)=-6.38708x3^2 8.2164x3 9.87854y3^2 -2.92383y3 1.47659x3y3 8.12759;
function(x4,y4)=-7.92744x4^2 9.46596x4 2.11184y4^2 5.58101y4 2.39804x4y4 3.47809;
function(x5,y5)=-2.98154x5^2 -8.79627x5 -1.04851y5^2 8.67517y5 -5.40178x5y5 3.64208;
function(x6,y6)=-9.9634x6^2 7.69254x6 -6.27182y6^2 6.75227y6 -2.79159x6y6 9.39686;
function(x7,y7)=-7.91321x7^2 -6.55468x7 5.86553y7^2 -4.3413y7 2.22792x7y7 3.25948;
function(x8,y8)=-1.0553x8^2 -6.34809x8 -8.15371y8^2 -8.96462y8 1.4564x8y8 -8.46527;
function(x9,y9)=6.53303x9^2 8.45207x9 -3.59645y9^2 -3.53199y9 5.96328x9y9 -6.26;
function(x10,y10)=2.14927x10^2 9.90338x10 5.733y10^2 -8.14079y10 5.08729x10y10 9.49129;
neighbor_set_x1=x10 x2 ;
neighbor_set_x10=x1 ;
neighbor_set_x2=x1 x4 ;
neighbor_set_x3=x4 x8 ;
neighbor_set_x4=x2 x3 x7 x9 ;
neighbor_set_x5=x6 x8 ;
neighbor_set_x6=x5 ;
neighbor_set_x7=x4 ;
neighbor_set_x8=x3 x5 ;
neighbor_set_x9=x4 ;
initial_distribution_y1=[alpha:4.43134,beta:6.28208];
initial_distribution_y2=[alpha:5.49849,beta:8.62941];
initial_distribution_y3=[alpha:5.89586,beta:9.177];
initial_distribution_y4=[alpha:6.52888,beta:6.23413];
initial_distribution_y5=[alpha:5.1335,beta:5.47186];
initial_distribution_y6=[alpha:8.60123,beta:4.28594];
initial_distribution_y7=[alpha:5.48277,beta:9.07616];
initial_distribution_y8=[alpha:5.14947,beta:8.39992];
initial_distribution_y9=[alpha:8.26019,beta:9.84328];
initial_distribution_y10=[alpha:7.38873,beta:7.86301];
transition_y1=[alpha:5.74837];
transition_y2=[alpha:9.082];
transition_y3=[alpha:5.70895];
transition_y4=[alpha:6.45899];
transition_y5=[alpha:4.55059];
transition_y6=[alpha:4.75755];
transition_y7=[alpha:4.9352];
transition_y8=[alpha:9.31635];
transition_y9=[alpha:5.2648];
transition_y10=[alpha:7.95239];
